1
1000
46
129 1
130 5
131 3
132 4
133 1
134 1
135 1
136 3
137 2
138 2
139 1
140 2
143 6
144 1
145 3
147 2
148 4
149 1
151 2
152 3
155 2
156 3
157 1
158 3
159 1
160 2
161 1
162 2
163 3
164 3
165 2
166 3
167 1
168 2
114 1
115 1
116 2
117 2
118 1
119 1
120 2
121 4
122 4
124 3
126 1
127 1
